(set-logic QF_S)
(declare-fun _var_0xINPUT_119897_() String)
(declare-fun __woorpje_diseq_pref0_() String)
(declare-fun __woorpje_diseq_suf_l0_() String)
(declare-fun __woorpje_diseq_suf_r0_() String)
(assert (=(str.++ _var_0xINPUT_119897_  "")(str.++ __woorpje_diseq_pref0_  "K" __woorpje_diseq_suf_l0_  "")) )
(assert (=(str.++  "3M3TrsYKyF" "")(str.++ __woorpje_diseq_pref0_  "F" __woorpje_diseq_suf_r0_  "")) )
(check-sat)
